c FILE /home/rafael/Documents/HappySet/MIHS/inputs/happygen/output/graph_scale_free_k5_p0.4_v50_20241127_082448.txt
c SOURCE This is a scale-free graph formed for the happy graph colouring problem.
c DESCRIPTION It was generated using the problem generator of Rhyd Lewis
c
c GRAPH STATS
c Seed                             = 2030907806
c Number of Nodes                  = 50
c Number of colours k              = 5
c Number of pre-assignments        = 20
c Number of links per new node     = 5
c Density                          = 0.191837
c 
c The degrees of nodes 1 to 50, respectively, are as follows 
c [26, 24, 20, 19, 19, 17, 16, 16, 14, 13, 12, 11, 11, 11, 10, 10, 10, 9, 9, 9, 9, 8, 8, 8, 8, 8, 
c  7, 7, 7, 7, 6, 6, 6, 6, 6, 6, 6, 5, 5, 5, 5, 5, 5, 5, 5, 5, 5, 5, 5, 5] 
c  
p edge 50 235 5
e 1 2
e 1 3
e 1 4
e 1 5
e 1 6
e 1 7
e 1 8
e 1 9
e 1 12
e 1 14
e 1 15
e 1 17
e 1 18
e 1 22
e 1 23
e 1 24
e 1 26
e 1 27
e 1 28
e 1 35
e 1 38
e 1 39
e 1 42
e 1 45
e 1 46
e 1 48
e 2 3
e 2 4
e 2 5
e 2 6
e 2 7
e 2 8
e 2 9
e 2 10
e 2 11
e 2 15
e 2 19
e 2 24
e 2 26
e 2 28
e 2 30
e 2 31
e 2 34
e 2 37
e 2 38
e 2 42
e 2 45
e 2 48
e 2 49
e 3 4
e 3 5
e 3 7
e 3 8
e 3 9
e 3 10
e 3 13
e 3 17
e 3 20
e 3 22
e 3 26
e 3 27
e 3 29
e 3 30
e 3 32
e 3 38
e 3 41
e 3 46
e 4 5
e 4 6
e 4 7
e 4 9
e 4 10
e 4 11
e 4 12
e 4 13
e 4 14
e 4 16
e 4 17
e 4 19
e 4 20
e 4 22
e 4 28
e 4 44
e 5 6
e 5 9
e 5 11
e 5 15
e 5 19
e 5 22
e 5 27
e 5 29
e 5 30
e 5 32
e 5 34
e 5 39
e 5 44
e 5 45
e 5 50
e 6 8
e 6 9
e 6 10
e 6 11
e 6 12
e 6 15
e 6 16
e 6 18
e 6 23
e 6 25
e 6 40
e 6 46
e 6 47
e 7 12
e 7 14
e 7 15
e 7 21
e 7 23
e 7 26
e 7 27
e 7 32
e 7 33
e 7 40
e 7 41
e 7 42
e 8 12
e 8 13
e 8 14
e 8 16
e 8 21
e 8 25
e 8 26
e 8 31
e 8 36
e 8 43
e 8 45
e 8 49
e 9 12
e 9 13
e 9 14
e 9 15
e 9 24
e 9 33
e 9 40
e 9 43
e 10 11
e 10 17
e 10 28
e 10 29
e 10 31
e 10 33
e 10 38
e 10 41
e 10 43
e 11 12
e 11 13
e 11 17
e 11 18
e 11 20
e 11 32
e 11 44
e 12 30
e 12 34
e 12 35
e 12 44
e 13 20
e 13 29
e 13 37
e 13 40
e 13 49
e 13 50
e 14 16
e 14 18
e 14 24
e 14 25
e 14 28
e 14 47
e 15 21
e 15 22
e 15 24
e 15 25
e 16 18
e 16 22
e 16 23
e 16 31
e 16 35
e 16 36
e 17 19
e 17 21
e 17 34
e 17 40
e 17 50
e 18 39
e 18 41
e 18 42
e 18 46
e 19 24
e 19 30
e 19 31
e 19 36
e 19 49
e 20 31
e 20 35
e 20 37
e 20 41
e 20 43
e 21 24
e 21 33
e 21 39
e 21 46
e 21 50
e 22 23
e 22 36
e 23 27
e 23 39
e 23 42
e 24 38
e 25 27
e 25 37
e 25 43
e 25 47
e 26 33
e 26 34
e 26 37
e 27 29
e 28 44
e 28 48
e 29 32
e 29 48
e 30 35
e 30 47
e 32 36
e 33 48
e 34 50
e 35 45
e 36 49
e 37 47
n 3 1
n 11 1
n 14 5
n 21 4
n 22 1
n 27 1
n 30 1
n 31 2
n 32 1
n 34 4
n 37 2
n 38 1
n 40 3
n 41 1
n 42 5
n 43 4
n 45 5
n 48 2
n 49 3
n 50 4
